NAME: tsp20-14
TYPE: TSP
DIMENSION: 20
EDGE_WEIGHT_TYPE: EUC_2D
NODE_COORD_SECTION
0 5 19
1 75 94
2 95 21
3 42 27
4 9 88
5 19 2
6 57 57
7 94 70
8 13 54
9 9 79
10 48 14
11 51 62
12 10 76
13 35 10
14 81 62
15 25 53
16 35 66
17 65 98
18 32 42
19 3 20
EOF